NAME : rnd19_20.tsp
TYPE : TSP
DIMENSION : 20
EDGE_WEIGHT_TYPE : EUC_2D
NODE_COORD_SECTION
1 509 292
2 582 351
3 987 697
4 764 936
5 859 558
6 933 756
7 186 333
8 235 651
9 314 563
10 576 57
11 654 649
12 560 349
13 226 236
14 792 896
15 682 141
16 942 144
17 962 305
18 916 718
19 873 600
20 442 510
